c Result of efficient AIG-to-CNF conversion using package CNF
p cnf 91 297
-2 3 53 0
-2 -3 -53 0
2 -3 53 0
2 3 -53 0
-3 -4 -47 0
-3 4 47 0
3 4 -47 0
3 -4 47 0
-4 -5 -37 0
-4 5 37 0
4 5 -37 0
4 -5 37 0
-5 -6 -36 0
-5 6 36 0
5 6 -36 0
5 -6 36 0
-6 7 25 0
-6 -7 -25 0
6 -7 25 0
6 7 -25 0
-7 8 20 0
-7 -8 -20 0
7 -8 20 0
7 8 -20 0
-8 9 14 0
-8 -9 -14 0
8 -9 14 0
8 9 -14 0
-9 -10 -13 0
-9 10 13 0
9 10 -13 0
9 -10 13 0
-10 -11 -12 0
-10 11 12 0
10 11 -12 0
10 -11 12 0
11 -81 -83 0
-11 81 0
-11 83 0
12 -79 -82 0
-12 79 0
-12 82 0
13 -76 -89 0
-13 76 0
-13 89 0
-14 15 16 0
-14 15 17 0
14 -15 0
14 -16 -17 0
15 -76 -79 -81 -82 0
-15 82 0
-15 76 0
-15 81 0
-15 79 0
16 -86 -89 0
-16 86 0
-16 89 0
-17 -18 -19 0
-17 18 19 0
17 18 -19 0
17 -18 19 0
18 -79 -81 0
-18 79 0
-18 81 0
19 -76 -82 0
-19 76 0
-19 82 0
-20 -21 -24 0
-20 21 24 0
20 21 -24 0
20 -21 24 0
-21 -22 -23 0
-21 22 23 0
21 22 -23 0
21 -22 23 0
22 -80 -86 0
-22 80 0
-22 86 0
23 -85 -90 0
-23 85 0
-23 90 0
24 -75 -77 0
-24 75 0
-24 77 0
-25 26 27 0
-25 27 33 0
-25 26 33 0
25 -26 -33 0
25 -27 -33 0
25 -26 -27 0
-26 16 17 0
-26 -16 -17 0
26 -16 17 0
26 16 -17 0
-27 28 29 0
-27 28 30 0
27 -28 0
27 -29 -30 0
28 -76 -81 -82 -86 0
-28 86 0
-28 76 0
-28 82 0
-28 81 0
29 -85 -89 0
-29 85 0
-29 89 0
-30 -31 -32 0
-30 31 32 0
30 31 -32 0
30 -31 32 0
31 -76 -81 0
-31 76 0
-31 81 0
32 -82 -86 0
-32 82 0
-32 86 0
-33 -34 -35 0
-33 34 35 0
33 34 -35 0
33 -34 35 0
34 -80 -85 0
-34 80 0
-34 85 0
35 -77 -90 0
-35 77 0
-35 90 0
36 -34 -35 0
-36 34 0
-36 35 0
37 -38 -40 0
-37 38 0
-37 40 0
-38 33 39 0
-38 -33 -39 0
38 -33 39 0
38 33 -39 0
-39 26 27 0
-39 -26 -27 0
39 -26 27 0
39 26 -27 0
-40 41 42 0
-40 42 46 0
-40 41 46 0
40 -42 -46 0
40 -41 -42 0
40 -41 -46 0
-41 29 30 0
-41 -29 -30 0
41 -29 30 0
41 29 -30 0
-42 43 45 0
-42 44 45 0
-42 43 44 0
42 -43 -44 0
42 -44 -45 0
42 -43 -45 0
43 -81 -86 0
-43 81 0
-43 86 0
44 -82 -85 0
-44 82 0
-44 85 0
45 -77 -89 0
-45 77 0
-45 89 0
46 -77 -80 0
-46 77 0
-46 80 0
47 46 -48 -49 -50 0
47 -46 48 -49 -50 0
-47 49 0
-47 46 48 0
-47 50 0
-47 -46 -48 0
-48 41 42 0
-48 -41 -42 0
48 -41 42 0
48 41 -42 0
-49 38 40 0
-49 -38 -40 0
49 -38 40 0
49 38 -40 0
50 -45 51 -52 0
50 45 -51 -52 0
-50 52 0
-50 -45 -51 0
-50 45 51 0
-51 -43 -44 0
-51 43 44 0
51 43 -44 0
51 -43 44 0
52 -77 -81 -82 -85 0
-52 85 0
-52 77 0
-52 82 0
-52 81 0
-53 54 65 0
-53 -54 -65 0
53 -54 65 0
53 54 -65 0
-54 55 58 0
-54 -55 -58 0
54 -55 58 0
54 55 -58 0
-55 17 56 0
-55 17 28 0
-55 28 56 0
55 -28 -56 0
55 -17 -56 0
55 -17 -28 0
-56 34 57 0
-56 -34 -57 0
56 -34 57 0
56 34 -57 0
-57 -16 -35 0
-57 16 35 0
57 16 -35 0
57 -16 35 0
-58 59 63 0
-58 -59 -63 0
58 -59 63 0
58 59 -63 0
-59 60 61 0
-59 -60 -61 0
59 -60 61 0
59 60 -61 0
-60 16 35 0
-60 34 35 0
-60 16 34 0
60 -16 -34 0
60 -34 -35 0
60 -16 -35 0
-61 22 62 0
-61 -22 -62 0
61 -22 62 0
61 22 -62 0
-62 -13 -24 0
-62 13 24 0
62 13 -24 0
62 -13 24 0
-63 10 64 0
-63 -10 -64 0
63 -10 64 0
63 10 -64 0
-64 -15 -23 0
-64 15 23 0
64 15 -23 0
64 -15 23 0
-65 66 68 0
-65 68 70 0
-65 66 70 0
65 -66 -70 0
65 -68 -70 0
65 -66 -68 0
-66 29 67 0
-66 46 67 0
-66 29 46 0
66 -29 -46 0
66 -46 -67 0
66 -29 -67 0
67 -44 -45 0
-67 44 0
-67 45 0
-68 56 69 0
-68 -56 -69 0
68 -56 69 0
68 56 -69 0
-69 -17 -28 0
-69 17 28 0
69 17 -28 0
69 -17 28 0
-70 30 71 0
-70 71 73 0
-70 30 73 0
70 -30 -73 0
70 -71 -73 0
70 -30 -71 0
-71 67 72 0
-71 -67 -72 0
71 -67 72 0
71 67 -72 0
-72 -29 -46 0
-72 29 46 0
72 29 -46 0
72 -29 46 0
-73 52 74 0
-73 43 52 0
-73 43 74 0
73 -43 -52 0
73 -52 -74 0
73 -43 -74 0
-74 -44 -45 0
-74 44 45 0
74 44 -45 0
74 -44 45 0
-91 0
2 0

